c User generated cnf file
p cnf 14 49
4 4 -4 0 
12 5 -8 0 
6 -12 8 0 
-8 3 6 0 
8 10 -6 0 
5 7 -4 0 
4 1 -14 0 
7 -6 7 0 
5 9 -9 0 
-11 2 12 0 
-7 13 6 0 
-9 1 4 0 
14 -8 12 0 
-3 1 2 0 
-9 8 11 0 
5 1 -1 0 
7 -10 6 0 
11 2 -4 0 
12 -12 3 0 
6 9 -6 0 
11 -3 9 0 
3 -7 11 0 
13 9 -8 0 
12 -14 13 0 
10 -4 8 0 
12 6 -3 0 
11 -8 9 0 
-13 5 1 0 
-3 6 5 0 
14 -1 7 0 
5 11 -9 0 
11 4 -5 0 
6 2 -10 0 
-7 13 12 0 
-1 4 9 0 
11 -11 2 0 
-5 13 3 0 
11 13 -14 0 
7 8 -3 0 
7 -9 8 0 
-7 6 14 0 
14 2 -11 0 
-10 1 10 0 
11 -4 13 0 
7 -14 11 0 
9 6 -2 0 
-1 2 3 0 
-4 2 4 0 
1 -7 3 0 
